1 4
2 13
3 4
4 4
5 20
6 18
7 22
8 16
9 13
10 13
11 11
12 10
13 24
14 24
15 6
16 24
17 6
18 1
19 20
20 1
21 1
22 16
23 1
24 2
25 6
26 2
27 1
28 1
29 15
30 24
31 19
32 12
33 13
34 19
35 3
36 8
37 8
38 4
39 17
40 2
41 23
42 24
43 22
44 12
45 10
46 23
47 19
48 23
49 6
50 2
51 17
52 23
53 18
54 23
55 17
56 24
57 7
58 6
59 7
60 23
61 17
62 21
63 13
64 21
65 22
66 20
67 18
68 24
69 17
70 2
71 2
72 11
73 12
74 15
75 19
76 19
77 8
78 11
79 3
80 3
81 9
82 8
83 9
84 8
85 8
86 9
87 8
88 1
89 8
90 9
91 11
92 18
93 7
94 22
95 15
96 19
97 24
98 15
99 16
100 14
101 11
102 10
103 11
104 24
105 13
106 8
107 13
108 14
109 13
110 24
111 5
112 5
113 15
114 23
115 24
116 14
117 19
118 24
119 3
120 5
121 18
122 24
123 12
124 3
125 17
126 6
127 14
128 22
129 21
130 17
131 6
132 14
133 17
134 20
135 20
136 12
137 3
138 4
139 20
140 9
141 19
142 16
143 5
144 3
145 24
146 21
147 24
148 12
149 20
150 22
151 22
152 7
153 7
154 17
155 15
156 13
157 15
158 11
159 5
160 5
161 23
162 21
163 11
164 24
165 15
166 14
167 3
168 5
169 18
170 5
171 6
172 13
173 13
174 22
175 24
176 14
177 15
178 24
179 15
180 12
181 24
182 10
183 24
184 24
185 10
186 16
187 22
188 16
189 21
190 12
